self-compositions/words_1/words_533_SAT.qaiger
aag 86 16 0 1 70
12
18
32
16
10
28
24
30
2
20
14
26
22
8
6
4
172
34 21 19
36 34 23
38 36 25
40 38 27
42 40 29
44 42 31
46 43 30
48 47 45
50 5 2
52 51 5
54 52 7
56 54 9
58 56 11
60 58 13
62 60 15
64 61 14
66 65 63
68 67 48
70 59 12
72 71 61
74 41 28
76 75 43
78 76 73
80 57 10
82 81 59
84 39 26
86 85 41
88 87 82
90 19 2
92 20 4
94 92 91
96 51 35
98 96 95
100 98 23
102 35 22
104 103 37
106 105 99
108 53 6
110 109 55
112 111 107
114 113 101
116 37 24
118 117 39
120 55 8
122 121 57
124 122 119
126 125 115
128 86 83
130 123 118
132 131 129
134 132 127
136 135 89
138 137 79
140 66 49
142 77 72
144 143 141
146 144 139
148 147 69
150 33 16
152 32 17
154 153 151
156 155 44
158 154 45
160 159 157
162 160 62
164 161 63
166 165 163
168 166 148
170 167 149
172 171 169
i0 1 x[5]
i1 2 y[0]
i2 2 y[7]
i3 1 x[7]
i4 1 x[4]
i5 2 y[5]
i6 2 y[3]
i7 2 y[6]
i8 1 x[0]
i9 2 y[1]
i10 1 x[6]
i11 2 y[4]
i12 2 y[2]
i13 1 x[3]
i14 1 x[2]
i15 1 x[1]
o0 bv[0]
c
simplified
  <
    subtract
      1
      subtract
        1
        subtract
          1 x
          1
    2 y
