self-compositions/words_1/words_533_SAT.qaiger.qdimacs
p cnf 86 211
a 1 2 3 4 5 6 7 8 0
e 9 10 11 12 13 14 15 16 17 18 19 20 21 22 23 24 25 26 27 28 29 30 31 32 33 34 35 36 37 38 39 40 41 42 43 44 45 46 47 48 49 50 51 52 53 54 55 56 57 58 59 60 61 62 63 64 65 66 67 68 69 70 71 72 73 74 75 76 77 78 79 80 81 82 83 84 85 86 0
10 9 17 0
-10 -17 0
-9 -17 0
-17 11 18 0
17 -18 0
-11 -18 0
-18 12 19 0
18 -19 0
-12 -19 0
-19 13 20 0
19 -20 0
-13 -20 0
-20 14 21 0
20 -21 0
-14 -21 0
-21 15 22 0
21 -22 0
-15 -22 0
21 -15 23 0
-21 -23 0
15 -23 0
23 22 24 0
-23 -24 0
-22 -24 0
2 -1 25 0
-2 -25 0
1 -25 0
25 2 26 0
-25 -26 0
-2 -26 0
-26 3 27 0
26 -27 0
-3 -27 0
-27 4 28 0
27 -28 0
-4 -28 0
-28 5 29 0
28 -29 0
-5 -29 0
-29 6 30 0
29 -30 0
-6 -30 0
-30 7 31 0
30 -31 0
-7 -31 0
30 -7 32 0
-30 -32 0
7 -32 0
32 31 33 0
-32 -33 0
-31 -33 0
33 -24 34 0
-33 -34 0
24 -34 0
29 -6 35 0
-29 -35 0
6 -35 0
35 30 36 0
-35 -36 0
-30 -36 0
20 -14 37 0
-20 -37 0
14 -37 0
37 21 38 0
-37 -38 0
-21 -38 0
-38 36 39 0
38 -39 0
-36 -39 0
28 -5 40 0
-28 -40 0
5 -40 0
40 29 41 0
-40 -41 0
-29 -41 0
19 -13 42 0
-19 -42 0
13 -42 0
42 20 43 0
-42 -43 0
-20 -43 0
43 -41 44 0
-43 -44 0
41 -44 0
9 -1 45 0
-9 -45 0
1 -45 0
-10 -2 46 0
10 -46 0
2 -46 0
-46 45 47 0
46 -47 0
-45 -47 0
25 17 48 0
-25 -48 0
-17 -48 0
-48 47 49 0
48 -49 0
-47 -49 0
-49 11 50 0
49 -50 0
-11 -50 0
17 -11 51 0
-17 -51 0
11 -51 0
51 18 52 0
-51 -52 0
-18 -52 0
52 49 53 0
-52 -53 0
-49 -53 0
26 -3 54 0
-26 -54 0
3 -54 0
54 27 55 0
-54 -55 0
-27 -55 0
55 53 56 0
-55 -56 0
-53 -56 0
56 50 57 0
-56 -57 0
-50 -57 0
18 -12 58 0
-18 -58 0
12 -58 0
58 19 59 0
-58 -59 0
-19 -59 0
27 -4 60 0
-27 -60 0
4 -60 0
60 28 61 0
-60 -61 0
-28 -61 0
-61 59 62 0
61 -62 0
-59 -62 0
62 57 63 0
-62 -63 0
-57 -63 0
-43 41 64 0
43 -64 0
-41 -64 0
61 -59 65 0
-61 -65 0
59 -65 0
65 64 66 0
-65 -66 0
-64 -66 0
-66 63 67 0
66 -67 0
-63 -67 0
67 44 68 0
-67 -68 0
-44 -68 0
68 39 69 0
-68 -69 0
-39 -69 0
-33 24 70 0
33 -70 0
-24 -70 0
38 -36 71 0
-38 -71 0
36 -71 0
71 70 72 0
-71 -72 0
-70 -72 0
-72 69 73 0
72 -73 0
-69 -73 0
73 34 74 0
-73 -74 0
-34 -74 0
16 -8 75 0
-16 -75 0
8 -75 0
-16 8 76 0
16 -76 0
-8 -76 0
76 75 77 0
-76 -77 0
-75 -77 0
77 -22 78 0
-77 -78 0
22 -78 0
-77 22 79 0
77 -79 0
-22 -79 0
79 78 80 0
-79 -80 0
-78 -80 0
-80 -31 81 0
80 -81 0
31 -81 0
80 31 82 0
-80 -82 0
-31 -82 0
82 81 83 0
-82 -83 0
-81 -83 0
-83 -74 84 0
83 -84 0
74 -84 0
83 74 85 0
-83 -85 0
-74 -85 0
85 84 86 0
-85 -86 0
-84 -86 0
86 0
